NAME : XML100_3334_05
DIMENSION : 101
NB_CLUSTERS : 6
CLUSTERING_ALG : DBSCAN
CLUSTERING_PARAMS : eps(108), minSamples(3)
CLUSTERS
1 0
2 1 2 3 6 8 9 12 13 16 18 19 22 24 25 26 27 28 29 31 33 34 38 39 41 44 45 49 51 53 58 63 68 70 73 74 76 78 79 81 82 84 86 88 90 91 93 94 96 98 99 100
3 5 11 15 20 23 30 32 35 36 40 43 46 47 52 54 55 57 59 62 64 66 67 69 72 75 77 80 85 89 92
4 7 14 17 21 42 65
5 10 37 48 50 56 60 95
6 4 61 71 83 87 97
EOF